NAME : rnd24_20.tsp
TYPE : TSP
DIMENSION : 20
EDGE_WEIGHT_TYPE : EUC_2D
NODE_COORD_SECTION
1 225 690
2 681 46
3 920 120
4 784 714
5 404 358
6 223 102
7 824 910
8 49 883
9 460 783
10 272 769
11 789 896
12 362 66
13 217 29
14 251 511
15 83 664
16 71 900
17 414 615
18 376 254
19 608 529
20 296 184
